48
27
0 28 30 31 32 33 36 37 42 43 45
1 28 29 31 32 33 36 39 42 43 45 46
2 28 29 30 36 40 41 42 43 44
3 28 29 31 36 39 43 44 45 46
4 28 29 33 36 41 45 46
5 27 28 29 30 38 39 40 41 42 43 44 46 47
6 29 30 36 37 38 40 41 42 43 45 46 47
7 27 28 30 31 40 42 44 45 46
8 28 29 30 31 32 37 38 40 42 43 45
9 29 31 39 40 42 43 44
10 27 28 29 30 31 32 36 38 40 43 44 45 46 47
11 28 29 30 36 39 40 41 44
12 28 30 36 43 45 46
13 28 30 33 39 43 45
14 27 30 32 34 36 37 38 42 43 47
15 28 29 30 37 38 41 42 45
16 27 32 34 40 41 44 46
17 29 31 41 42 43 44 46
18 28 29 30 35 37 39 44 45 46
19 29 31 41 42 47
20 34 38 39
21 29 33 39
22 40 47
23 29 31 34 36 39 41
24 36 37
25 29 32 43
26
